1398	10
2330	10
1398	10
933	10
932	10
932	10
932	10
932	10
932	10
1399	10
466	10
466	10
466	10
466	10
466	10
932	10
466	10
466	10
466	10
466	10
466	10
932	10
467	10
466	10
466	10
466	10
466	10
932	10
932	10
933	10
1398	10
932	10
1398	10
932	10
1398	10
932	10
932	10
933	10
1399	10
1398	10
932	10
1398	10
1865	10
932	10
1398	10
932	10
466	10
932	10
466	10
933	10
